Ref. structure: ("W3C", "mp-979413") Formula: W3 C1 Spacegroup: ("I4/mmm", 139)
1.0
-1.764266 1.764266 4.533736
1.764266 -1.764266 4.533736
1.764266 1.764266 -4.533736
W C
3 1
direct
0.750000 0.250000 0.500000 W
0.250000 0.750000 0.500000 W
0.500000 0.500000 0.000000 W
0.000000 0.000000 0.000000 C
