Ref. structure: ("Si2W", "mp-8939") Formula: Si6 W3 Spacegroup: ("P6_222", 180)
1.0
2.308426 -3.998312 0.000000
2.308426 3.998312 0.000000
0.000000 0.000000 6.653222
Si W
6 3
direct
0.163626 0.836374 0.833333 Si
0.327253 0.163626 0.166667 Si
0.836374 0.672747 0.500000 Si
0.836374 0.163626 0.833333 Si
0.672747 0.836374 0.166667 Si
0.163626 0.327253 0.500000 Si
0.500000 0.000000 0.500000 W
0.000000 0.500000 0.166667 W
0.500000 0.500000 0.833333 W
