Ref. structure: ("W3C", "mp-979413") Mod. Formula: Si1 W3 Spacegroup: ("I4/mmm", 139)
1.0
-1.764266 1.764266 4.533736
1.764266 -1.764266 4.533736
1.764266 1.764266 -4.533736
Si W
1 3
direct
0.000000 0.000000 0.000000 Si
0.750000 0.250000 0.500000 W
0.250000 0.750000 0.500000 W
0.500000 0.500000 0.000000 W
