Ref. structure: ("C-Graph", "mp-569304") Mod. Formula: Si3 C1 Spacegroup: ("R3m", 160)
1.0
11.875771 -1.234686 0.000000
11.875771 1.234686 0.000000
11.747405 0.000000 2.134682
Si C
3 1
direct
0.949244 0.949244 0.949244 Si
0.282535 0.282535 0.282535 Si
0.717465 0.717465 0.717465 Si
0.050756 0.050756 0.050756 C
