Ref. structure: ("Si2W3", "mp-1079377") Mod. Formula: Si1 W6 C3 Spacegroup: ("Amm2", 38)
1.0
6.615847 0.000000 0.000000
0.000000 6.615847 0.000000
0.000000 0.000000 3.343505
Si W C
1 6 3
direct
0.366002 0.133998 0.000000 Si
0.500000 0.500000 0.000000 W
0.000000 0.000000 0.000000 W
0.659841 0.159841 0.500000 W
0.340159 0.840159 0.500000 W
0.159841 0.340159 0.500000 W
0.840159 0.659841 0.500000 W
0.133998 0.633998 0.000000 C
0.866002 0.366002 0.000000 C
0.633998 0.866002 0.000000 C
