Ref. structure: ("WC", "mp-1008630") Formula: W1 C1 Spacegroup: ("Pm-3m", 221)
1.0
2.733434 0.000000 0.000000
0.000000 2.733434 0.000000
0.000000 0.000000 2.733434
W C
1 1
direct
0.000000 0.000000 0.000000 W
0.500000 0.500000 0.500000 C
