Ref. structure: ("Si-Dia", "mp-149") Mod. Formula: C2 Spacegroup: ("Fd-3m", 227)
1.0
0.000000 2.734364 2.734364
2.734364 0.000000 2.734364
2.734364 2.734364 0.000000
C
2
direct
0.250000 0.250000 0.250000 C
0.000000 0.000000 0.000000 C
