Ref. structure: ("W2C", "mp-33065") Formula: W4 C2 Spacegroup: ("Pnnm", 58)
1.0
3.033655 0.000000 0.000000
0.000000 4.740195 0.000000
0.000000 0.000000 5.295848
W C
4 2
direct
0.500000 0.257350 0.160014 W
0.000000 0.757350 0.339986 W
0.000000 0.242650 0.660014 W
0.500000 0.742650 0.839986 W
0.000000 0.000000 0.000000 C
0.500000 0.500000 0.500000 C
