Ref. structure: ("Si3W5", "mp-31219") Mod. Formula: Si3 W10 C3 Spacegroup: ("Fmm2", 42)
1.0
-4.834754 4.834754 2.499397
4.834754 -4.834754 2.499397
4.834754 4.834754 -2.499397
Si W C
3 10 3
direct
0.832003 0.332003 0.164006 Si
0.167997 0.667997 0.835994 Si
0.667997 0.832003 0.500000 Si
0.723984 0.575035 0.299019 W
0.276016 0.424965 0.700981 W
0.750000 0.250000 0.500000 W
0.250000 0.750000 0.500000 W
0.575035 0.276016 0.851051 W
0.424965 0.723984 0.148949 W
0.776016 0.075035 0.851051 W
0.924965 0.776016 0.700981 W
0.075035 0.223984 0.299019 W
0.223984 0.924965 0.148949 W
0.750000 0.750000 0.000000 C
0.250000 0.250000 0.000000 C
0.332003 0.167997 0.500000 C
