Ref. structure: ("Si-Dia", "mp-149") Mod. Formula: Si1 C1 Spacegroup: ("F-43m", 216)
1.0
0.000000 2.734364 2.734364
2.734364 0.000000 2.734364
2.734364 2.734364 0.000000
Si C
1 1
direct
0.000000 0.000000 0.000000 Si
0.250000 0.250000 0.250000 C
