Ref. structure: ("SiW3", "mp-570334") Formula: Si1 W3 Spacegroup: ("Im-3m", 229)
1.0
-2.606175 2.606175 2.606175
2.606175 -2.606175 2.606175
2.606175 2.606175 -2.606175
Si W
1 3
direct
0.000000 0.000000 0.000000 Si
0.500000 0.500000 0.000000 W
0.500000 0.000000 0.500000 W
0.000000 0.500000 0.500000 W
