Ref. structure: ("WC", "mp-1008635") Mod. Formula: Si1 W1 Spacegroup: ("F-43m", 216)
1.0
0.000000 2.354692 2.354692
2.354692 0.000000 2.354692
2.354692 2.354692 0.000000
Si W
1 1
direct
0.250000 0.250000 0.250000 Si
0.000000 0.000000 0.000000 W
