Ref. structure: ("W9C4", "mp-684989") Mod. Formula: Si7 W18 C1 Spacegroup: ("C2", 5)
1.0
5.446274 -4.518994 0.000000
5.446274 4.518994 0.000000
1.696681 0.000000 6.870552
Si W C
7 18 1
direct
0.165672 0.500000 0.834328 Si
0.834328 0.165672 0.500000 Si
0.000000 0.667718 0.332282 Si
0.500000 0.834328 0.165672 Si
0.000000 0.000000 0.000000 Si
0.500000 0.500000 0.500000 Si
0.332282 0.000000 0.667718 Si
0.136732 0.804696 0.803280 W
0.143700 0.142759 0.463926 W
0.142759 0.463926 0.143700 W
0.805938 0.473268 0.474961 W
0.804696 0.803280 0.136732 W
0.863268 0.196720 0.195304 W
0.803280 0.136732 0.804696 W
0.463926 0.143700 0.142759 W
0.856300 0.536074 0.857241 W
0.473268 0.474961 0.805938 W
0.857241 0.856300 0.536074 W
0.536074 0.857241 0.856300 W
0.474961 0.805938 0.473268 W
0.526732 0.194062 0.525039 W
0.525039 0.526732 0.194062 W
0.194062 0.525039 0.526732 W
0.195304 0.863268 0.196720 W
0.196720 0.195304 0.863268 W
0.667718 0.332282 0.000000 C
