Ref. structure: ("Si2W", "mp-1620") Mod. Formula: W1 C2 Spacegroup: ("I4/mmm", 139)
1.0
-1.616778 1.616778 3.933739
1.616778 -1.616778 3.933739
1.616778 1.616778 -3.933739
W C
1 2
direct
0.000000 0.000000 0.000000 W
0.334929 0.334929 0.000000 C
0.665071 0.665071 0.000000 C
