Ref. structure: ("WC", "mp-13136") Mod. Formula: Si1 W1 Spacegroup: ("Fm-3m", 225)
1.0
0.000000 2.192684 2.192684
2.192684 0.000000 2.192684
2.192684 2.192684 0.000000
Si W
1 1
direct
0.500000 0.500000 0.500000 Si
0.000000 0.000000 0.000000 W
