Ref. structure: ("WC", "mp-13136") Formula: W1 C1 Spacegroup: ("Fm-3m", 225)
1.0
0.000000 2.192684 2.192684
2.192684 0.000000 2.192684
2.192684 2.192684 0.000000
W C
1 1
direct
0.000000 0.000000 0.000000 W
0.500000 0.500000 0.500000 C
