Ref. structure: ("Si2W", "mp-8939") Mod. Formula: Si5 W3 C1 Spacegroup: ("C2", 5)
1.0
2.308426 -3.998312 0.000000
2.308426 3.998312 0.000000
0.000000 0.000000 6.653222
Si W C
5 3 1
direct
0.327253 0.163626 0.166667 Si
0.836374 0.672747 0.500000 Si
0.836374 0.163626 0.833333 Si
0.672747 0.836374 0.166667 Si
0.163626 0.327253 0.500000 Si
0.500000 0.000000 0.500000 W
0.000000 0.500000 0.166667 W
0.500000 0.500000 0.833333 W
0.163626 0.836374 0.833333 C
