Ref. structure: ("W2C", "mp-567397") Mod. Formula: Si2 W6 C1 Spacegroup: ("P312", 149)
1.0
2.628427 -4.552569 0.000000
2.628427 4.552569 0.000000
0.000000 0.000000 4.779412
Si W C
2 6 1
direct
0.000000 0.000000 0.000000 Si
0.333333 0.666667 0.500000 Si
0.667974 0.667974 0.247896 W
0.332026 0.332026 0.752104 W
0.000000 0.332026 0.247896 W
0.332026 0.000000 0.247896 W
0.667974 0.000000 0.752104 W
0.000000 0.667974 0.752104 W
0.666667 0.333333 0.500000 C
