Ref. structure: ("WC", "mp-1894") Mod. Formula: Si1 W1 Spacegroup: ("P-6m2", 187)
1.0
1.464160 -2.536000 0.000000
1.464160 2.536000 0.000000
0.000000 0.000000 2.852907
Si W
1 1
direct
0.666667 0.333333 0.500000 Si
0.000000 0.000000 0.000000 W
