Ref. structure: ("Si2W", "mp-1620") Formula: Si2 W1 Spacegroup: ("I4/mmm", 139)
1.0
-1.616778 1.616778 3.933739
1.616778 -1.616778 3.933739
1.616778 1.616778 -3.933739
Si W
2 1
direct
0.334929 0.334929 0.000000 Si
0.665071 0.665071 0.000000 Si
0.000000 0.000000 0.000000 W
