Ref. structure: ("SiW3", "mp-570334") Mod. Formula: W3 C1 Spacegroup: ("Im-3m", 229)
1.0
-2.606175 2.606175 2.606175
2.606175 -2.606175 2.606175
2.606175 2.606175 -2.606175
W C
3 1
direct
0.500000 0.500000 0.000000 W
0.500000 0.000000 0.500000 W
0.000000 0.500000 0.500000 W
0.000000 0.000000 0.000000 C
