Ref. structure: ("C-Graph", "mp-569304") Mod. Formula: Si1 C3 Spacegroup: ("R3m", 160)
1.0
11.875771 -1.234686 0.000000
11.875771 1.234686 0.000000
11.747405 0.000000 2.134682
Si C
1 3
direct
0.949244 0.949244 0.949244 Si
0.282535 0.282535 0.282535 C
0.717465 0.717465 0.717465 C
0.050756 0.050756 0.050756 C
