Ref. structure: ("WC", "mp-1008630") Mod. Formula: Si1 W1 Spacegroup: ("Pm-3m", 221)
1.0
2.733434 0.000000 0.000000
0.000000 2.733434 0.000000
0.000000 0.000000 2.733434
Si W
1 1
direct
0.500000 0.500000 0.500000 Si
0.000000 0.000000 0.000000 W
