Ref. structure: ("W2C", "mp-1008625") Formula: W2 C1 Spacegroup: ("P-3m1", 164)
1.0
1.535023 -2.658737 0.000000
1.535023 2.658737 0.000000
0.000000 0.000000 4.678428
W C
2 1
direct
0.666667 0.333333 0.746331 W
0.333333 0.666667 0.253669 W
0.000000 0.000000 0.000000 C
