Ref. structure: ("W2C", "mp-2034") Mod. Formula: Si2 W8 C2 Spacegroup: ("P2_12_12", 18)
1.0
4.756322 0.000000 0.000000
0.000000 5.237265 0.000000
0.000000 0.000000 6.111034
Si W C
2 8 2
direct
0.500000 0.750000 0.878250 Si
0.000000 0.250000 0.621750 Si
0.244805 0.081187 0.876420 W
0.744805 0.918813 0.623580 W
0.255195 0.581187 0.623580 W
0.755195 0.418813 0.876420 W
0.244805 0.581187 0.123580 W
0.744805 0.418813 0.376420 W
0.255195 0.081187 0.376420 W
0.755195 0.918813 0.123580 W
0.500000 0.250000 0.121750 C
0.000000 0.750000 0.378250 C
