Ref. structure: ("WC", "mp-1008635") Formula: W1 C1 Spacegroup: ("F-43m", 216)
1.0
0.000000 2.354692 2.354692
2.354692 0.000000 2.354692
2.354692 2.354692 0.000000
W C
1 1
direct
0.000000 0.000000 0.000000 W
0.250000 0.250000 0.250000 C
