Ref. structure: ("Si2W", "mp-1620") Mod. Formula: Si1 W1 C1 Spacegroup: ("I4mm", 107)
1.0
-1.616778 1.616778 3.933739
1.616778 -1.616778 3.933739
1.616778 1.616778 -3.933739
Si W C
1 1 1
direct
0.665071 0.665071 0.000000 Si
0.000000 0.000000 0.000000 W
0.334929 0.334929 0.000000 C
