Ref. structure: ("Si3W", "mp-972748") Mod. Formula: Si5 W2 C1 Spacegroup: ("Amm2", 38)
1.0
2.625988 -4.548345 0.000000
2.625988 4.548345 0.000000
0.000000 0.000000 4.800385
Si W C
5 2 1
direct
0.646938 0.823469 0.250000 Si
0.176531 0.823469 0.250000 Si
0.823469 0.646938 0.750000 Si
0.353062 0.176531 0.750000 Si
0.823469 0.176531 0.750000 Si
0.333333 0.666667 0.750000 W
0.666667 0.333333 0.250000 W
0.176531 0.353062 0.250000 C
