Ref. structure: ("AlWC2", "mp-1228830") Mod. Formula: Si1 W1 C2 Spacegroup: ("Pmm2", 25)
1.0
2.795778 0.000000 0.000000
0.000000 2.995236 0.000000
0.000000 0.000000 5.056083
Si W C
1 1 2
direct
0.000000 0.000000 0.480874 Si
0.000000 0.500000 0.004234 W
0.500000 0.500000 0.325147 C
0.500000 0.000000 0.856445 C
