Ref. structure: ("VW2C3", "mp-1216260") Mod. Formula: Si1 W2 C3 Spacegroup: ("Immm", 71)
1.0
-1.524485 2.161930 4.585029
1.524485 -2.161930 4.585029
1.524485 2.161930 -4.585029
Si W C
1 2 3
direct
0.500000 0.000000 0.500000 Si
0.165983 0.665983 0.500000 W
0.834017 0.334017 0.500000 W
0.000000 0.000000 0.000000 C
0.660961 0.660961 0.000000 C
0.339039 0.339039 0.000000 C
