Ref. structure: ("Ti4WC5", "mp-1217128") Mod. Formula: Si4 W1 C5 Spacegroup: ("R-3m", 166)
1.0
12.613499 -1.533108 0.000000
12.613499 1.533108 0.000000
12.427157 0.000000 2.648875
Si W C
4 1 5
direct
0.099337 0.099337 0.099337 Si
0.699744 0.699744 0.699744 Si
0.300256 0.300256 0.300256 Si
0.900663 0.900663 0.900663 Si
0.500000 0.500000 0.500000 W
0.599963 0.599963 0.599963 C
0.400037 0.400037 0.400037 C
0.000000 0.000000 0.000000 C
0.200141 0.200141 0.200141 C
0.799859 0.799859 0.799859 C
