Ref. structure: ("C-Graph", "mp-569304") Formula: C4 Spacegroup: ("R-3m", 166)
1.0
11.875771 -1.234686 0.000000
11.875771 1.234686 0.000000
11.747405 0.000000 2.134682
C
4
direct
0.949244 0.949244 0.949244 C
0.282535 0.282535 0.282535 C
0.717465 0.717465 0.717465 C
0.050756 0.050756 0.050756 C
