Ref. structure: ("AlWC", "mp-1228818") Mod. Formula: Si1 W1 C1 Spacegroup: ("Pmm2", 25)
1.0
2.846114 0.000000 0.000000
0.000000 2.857872 0.000000
0.000000 0.000000 4.816451
Si W C
1 1 1
direct
0.000000 0.000000 0.498121 Si
0.500000 0.000000 0.989781 W
0.500000 0.500000 0.678748 C
