Ref. structure: ("Si-Dia", "mp-149") Formula: Si2 Spacegroup: ("Fd-3m", 227)
1.0
0.000000 2.734364 2.734364
2.734364 0.000000 2.734364
2.734364 2.734364 0.000000
Si
2
direct
0.250000 0.250000 0.250000 Si
0.000000 0.000000 0.000000 Si
