Ref. structure: ("TiWC2", "mp-1216690") Mod. Formula: Si1 W1 C2 Spacegroup: ("R-3m", 166)
1.0
5.132537 -1.534425 0.000000
5.132537 1.534425 0.000000
4.673805 0.000000 2.617812
Si W C
1 1 2
direct
0.500000 0.500000 0.500000 Si
0.000000 0.000000 0.000000 W
0.249372 0.249372 0.249372 C
0.750628 0.750628 0.750628 C
