Ref. structure: ("Al3W3C4", "mp-1228977") Mod. Formula: Si3 W3 C4 Spacegroup: ("Pmm2", 25)
1.0
2.835136 0.000000 0.000000
0.000000 2.946347 0.000000
0.000000 0.000000 14.571282
Si W C
3 3 4
direct
0.000000 0.000000 0.497582 Si
0.000000 0.500000 0.662219 Si
0.000000 0.000000 0.833031 Si
0.000000 0.500000 0.990933 W
0.000000 0.000000 0.165042 W
0.000000 0.500000 0.337310 W
0.500000 0.500000 0.103007 C
0.500000 0.000000 0.279713 C
0.500000 0.500000 0.448168 C
0.500000 0.000000 0.627462 C
