Ref. structure: ("AlW3C4", "mp-1228839") Mod. Formula: Si1 W3 C4 Spacegroup: ("Pmm2", 25)
1.0
2.832364 0.000000 0.000000
0.000000 2.947406 0.000000
0.000000 0.000000 10.137952
Si W C
1 3 4
direct
0.000000 0.000000 0.738896 Si
0.000000 0.500000 0.001881 W
0.000000 0.000000 0.251347 W
0.000000 0.500000 0.501655 W
0.500000 0.500000 0.168044 C
0.500000 0.000000 0.417669 C
0.500000 0.500000 0.661687 C
0.500000 0.000000 0.925522 C
