Ref. structure: ("Ti3WC4", "mp-1217115") Mod. Formula: Si3 W1 C4 Spacegroup: ("R-3m", 166)
1.0
10.096774 -1.534604 0.000000
10.096774 1.534604 0.000000
9.863530 0.000000 2.647759
Si W C
3 1 4
direct
0.249408 0.249408 0.249408 Si
0.500000 0.500000 0.500000 Si
0.750592 0.750592 0.750592 Si
0.000000 0.000000 0.000000 W
0.125128 0.125128 0.125128 C
0.375172 0.375172 0.375172 C
0.624828 0.624828 0.624828 C
0.874872 0.874872 0.874872 C
