Ref. structure: ("AlW2C", "mp-1079892") Mod. Formula: Si2 W4 C2 Spacegroup: ("P6_3/mmc", 194)
1.0
1.503654 -2.604406 0.000000
1.503654 2.604406 0.000000
0.000000 0.000000 13.735535
Si W C
2 4 2
direct
0.333333 0.666667 0.750000 Si
0.666667 0.333333 0.250000 Si
0.333333 0.666667 0.409887 W
0.666667 0.333333 0.590113 W
0.666667 0.333333 0.909887 W
0.333333 0.666667 0.090113 W
0.000000 0.000000 0.500000 C
0.000000 0.000000 0.000000 C
