Ref. structure: ("Al3WC4", "mp-1228936") Mod. Formula: Si3 W1 C4 Spacegroup: ("Pmm2", 25)
1.0
2.664361 0.000000 0.000000
0.000000 3.031143 0.000000
0.000000 0.000000 10.433723
Si W C
3 1 4
direct
0.000000 0.000000 0.246372 Si
0.000000 0.500000 0.497825 Si
0.000000 0.000000 0.746957 Si
0.000000 0.500000 0.005658 W
0.500000 0.500000 0.161201 C
0.500000 0.000000 0.414554 C
0.500000 0.500000 0.667176 C
0.500000 0.000000 0.926958 C
